Route #1: 44 39 49 46 34 35 43 42 40 33 37 29 31
Route #2: 68 66 67 71 69 21 16 19 15 26 13 70
Route #3: 30 32 75
Route #4: 55 10 24
Route #5: 60 65 56 63 38 45 47 61 58
Route #6: 6 8 9 62 22 27 14 23 18 41 17 25 28 12 20 52 3 54
Route #7: 48 50 36 7
Route #8: 4 5
Route #9: 57 2 53 64 1 51
Route #10: 11 59 72 74 73
Cost 1341.2195428400526